 Code  3033
 Dimension, Fixed Cost
   100        3000
 Facility, Client, Transportation Cost
     1       15           3
     1       44           2
     1       55           3
     1       61           3
     1       67           0
     1       80           2
     1       81           3
     1       89           4
     1       90           0
     1       95           1
     2        4           2
     2       11           4
     2       20           2
     2       30           1
     2       33           1
     2       35           1
     2       44           2
     2       65           1
     2       69           1
     2       71           1
     3        5           4
     3        6           1
     3       32           3
     3       36           3
     3       43           0
     3       46           1
     3       77           1
     3       82           1
     3       84           4
     3       97           2
     4        5           2
     4       10           4
     4       16           3
     4       19           3
     4       33           2
     4       40           0
     4       55           4
     4       62           0
     4       75           0
     4       77           2
     5       22           2
     5       30           3
     5       41           4
     5       48           2
     5       51           0
     5       55           1
     5       58           2
     5       67           1
     5       71           0
     5       77           0
     6        2           1
     6        3           3
     6        8           1
     6       28           4
     6       29           4
     6       40           1
     6       42           0
     6       47           2
     6       70           1
     6       71           2
     7        3           4
     7        5           1
     7       21           4
     7       29           0
     7       35           2
     7       40           2
     7       52           0
     7       63           2
     7       84           2
     7       88           0
     8        8           0
     8       32           3
     8       46           0
     8       80           2
     8       86           3
     8       91           1
     8       92           1
     8       93           4
     8       96           1
     8       98           1
     9        5           4
     9       34           3
     9       47           4
     9       57           3
     9       67           0
     9       68           2
     9       85           3
     9       88           0
     9       89           3
     9       90           4
    10        3           3
    10       14           1
    10       15           1
    10       18           2
    10       22           1
    10       35           3
    10       37           1
    10       39           2
    10       56           0
    10       73           4
    11        7           4
    11       19           3
    11       35           4
    11       60           4
    11       68           3
    11       70           2
    11       79           1
    11       81           3
    11       85           3
    11       89           3
    12       10           2
    12       14           0
    12       18           3
    12       24           3
    12       43           1
    12       44           1
    12       51           3
    12       54           0
    12       56           0
    12       64           4
    13        1           2
    13       11           4
    13       18           0
    13       24           2
    13       53           2
    13       62           2
    13       70           0
    13       75           4
    13       84           4
    13       87           1
    14        3           3
    14        4           1
    14        5           4
    14        6           4
    14        9           4
    14       22           0
    14       49           4
    14       50           0
    14       51           0
    14       74           2
    15       12           1
    15       27           3
    15       31           3
    15       39           1
    15       41           4
    15       43           4
    15       47           3
    15       51           0
    15       59           2
    15       63           3
    16        7           4
    16        9           0
    16       60           1
    16       74           2
    16       85           4
    16       91           3
    16       95           0
    16       97           1
    16       98           3
    16      100           0
    17        8           4
    17       48           1
    17       54           2
    17       56           2
    17       65           0
    17       79           0
    17       80           4
    17       83           2
    17       88           1
    17       91           4
    18        2           2
    18       30           3
    18       35           0
    18       36           1
    18       46           0
    18       47           2
    18       70           3
    18       74           0
    18       77           3
    18       84           1
    19        2           2
    19        3           2
    19        4           1
    19       17           0
    19       18           4
    19       31           4
    19       36           4
    19       40           4
    19       46           3
    19       52           4
    20       11           3
    20       14           3
    20       33           3
    20       34           0
    20       60           0
    20       66           0
    20       69           0
    20       75           4
    20       77           2
    20       92           0
    21        2           1
    21        7           0
    21       21           1
    21       45           3
    21       48           3
    21       65           4
    21       67           0
    21       70           1
    21       80           3
    21       81           4
    22        1           1
    22        4           2
    22       19           2
    22       32           2
    22       39           3
    22       42           3
    22       72           4
    22       73           0
    22       79           0
    22       83           2
    23       27           4
    23       46           1
    23       54           4
    23       55           2
    23       82           4
    23       86           3
    23       87           2
    23       94           0
    23       96           1
    23       99           4
    24       15           1
    24       20           3
    24       29           0
    24       53           0
    24       65           2
    24       68           1
    24       88           2
    24       93           2
    24       98           4
    24       99           4
    25        1           2
    25       10           3
    25       34           3
    25       47           4
    25       79           2
    25       83           0
    25       90           2
    25       95           1
    25       96           4
    25       97           4
    26       16           4
    26       28           1
    26       41           1
    26       42           1
    26       53           2
    26       60           0
    26       64           4
    26       72           0
    26       79           2
    26       83           4
    27       14           1
    27       15           4
    27       17           1
    27       24           4
    27       26           4
    27       30           3
    27       32           1
    27       37           3
    27       57           0
    27       58           2
    28        6           2
    28       13           4
    28       25           4
    28       48           1
    28       59           2
    28       80           3
    28       91           4
    28       96           0
    28       98           2
    28      100           2
    29        4           2
    29       22           3
    29       31           2
    29       37           0
    29       40           3
    29       46           4
    29       54           1
    29       57           0
    29       63           1
    29       65           4
    30       12           0
    30       18           2
    30       27           2
    30       49           3
    30       59           0
    30       63           4
    30       67           0
    30       80           3
    30       85           2
    30       89           2
    31        3           4
    31        9           0
    31       16           2
    31       20           2
    31       22           2
    31       58           3
    31       59           0
    31       85           1
    31       86           4
    31       90           2
    32        7           3
    32       11           3
    32       43           3
    32       46           2
    32       61           1
    32       63           1
    32       76           0
    32       82           1
    32       93           2
    32       94           3
    33        6           3
    33       13           2
    33       27           2
    33       36           0
    33       50           4
    33       58           1
    33       67           3
    33       86           4
    33       95           0
    33       96           4
    34        8           3
    34       26           2
    34       29           1
    34       33           0
    34       39           3
    34       57           1
    34       60           3
    34       63           1
    34       65           1
    34       86           4
    35       34           4
    35       39           2
    35       45           1
    35       62           1
    35       68           2
    35       86           0
    35       89           1
    35       98           2
    35       99           4
    35      100           3
    36        5           4
    36       11           4
    36       25           0
    36       26           3
    36       30           2
    36       36           1
    36       51           1
    36       61           1
    36       71           0
    36       93           2
    37        5           4
    37       27           1
    37       50           0
    37       69           3
    37       78           4
    37       87           4
    37       97           2
    37       98           2
    37       99           0
    37      100           3
    38       12           4
    38       39           0
    38       40           4
    38       41           1
    38       43           1
    38       54           2
    38       72           0
    38       76           1
    38       94           2
    38       98           2
    39       12           2
    39       17           0
    39       35           4
    39       48           4
    39       59           3
    39       65           4
    39       80           1
    39       84           2
    39       87           2
    39       95           0
    40        5           4
    40        7           0
    40       11           0
    40       19           3
    40       23           4
    40       33           4
    40       35           1
    40       61           2
    40       75           3
    40       95           2
    41        4           4
    41       39           1
    41       53           1
    41       59           1
    41       63           1
    41       71           2
    41       78           3
    41       89           4
    41       93           3
    41       94           2
    42       10           2
    42       13           4
    42       29           0
    42       37           2
    42       38           3
    42       41           3
    42       53           4
    42       56           1
    42       61           3
    42       66           4
    43        9           1
    43       17           4
    43       31           3
    43       32           2
    43       35           0
    43       42           3
    43       45           2
    43       77           4
    43       78           3
    43       81           0
    44       31           3
    44       38           0
    44       44           3
    44       61           1
    44       72           2
    44       81           2
    44       86           3
    44       91           0
    44       94           3
    44       95           4
    45       12           4
    45       22           1
    45       31           1
    45       38           1
    45       54           0
    45       69           0
    45       79           1
    45       81           2
    45       82           0
    45       86           2
    46        5           3
    46        7           3
    46       10           1
    46       44           3
    46       48           1
    46       57           4
    46       58           4
    46       64           0
    46       73           3
    46       93           1
    47        7           4
    47       12           4
    47       14           4
    47       21           2
    47       24           3
    47       54           1
    47       71           0
    47       87           0
    47       92           4
    47       97           1
    48       45           0
    48       50           3
    48       54           4
    48       62           0
    48       66           3
    48       79           4
    48       87           0
    48       96           0
    48       99           4
    48      100           0
    49        6           2
    49       23           1
    49       25           3
    49       30           0
    49       32           2
    49       48           0
    49       64           0
    49       72           4
    49       74           2
    49       82           0
    50       19           0
    50       27           1
    50       33           3
    50       35           3
    50       46           4
    50       49           0
    50       53           0
    50       61           4
    50       68           0
    50       76           3
    51       36           3
    51       37           3
    51       38           2
    51       49           0
    51       62           0
    51       70           2
    51       73           2
    51       81           3
    51       91           1
    51       92           0
    52       21           4
    52       41           1
    52       45           2
    52       50           3
    52       56           3
    52       61           2
    52       68           4
    52       71           3
    52       74           4
    52       76           0
    53        3           1
    53       13           2
    53       34           3
    53       51           2
    53       56           2
    53       75           1
    53       79           0
    53       84           1
    53       85           0
    53       91           3
    54       10           0
    54       34           2
    54       52           3
    54       73           2
    54       88           1
    54       90           4
    54       95           3
    54       96           4
    54       99           3
    54      100           4
    55       15           2
    55       25           2
    55       45           4
    55       46           3
    55       60           3
    55       64           3
    55       66           4
    55       76           3
    55       83           0
    55       84           0
    56        3           1
    56        9           4
    56       12           4
    56       13           4
    56       24           3
    56       26           3
    56       41           1
    56       53           0
    56       55           0
    56       64           4
    57        6           2
    57        8           0
    57       16           4
    57       26           4
    57       43           1
    57       68           2
    57       74           3
    57       78           2
    57       88           3
    57       91           2
    58        3           0
    58        4           3
    58       16           2
    58       18           0
    58       41           1
    58       44           2
    58       57           0
    58       67           3
    58       70           3
    58       73           2
    59       17           0
    59       24           3
    59       25           4
    59       29           3
    59       33           0
    59       57           0
    59       70           4
    59       76           1
    59       83           1
    59       84           0
    60        1           4
    60        4           1
    60        6           3
    60       14           4
    60       15           2
    60       17           4
    60       23           3
    60       26           4
    60       32           1
    60       34           2
    61        1           4
    61        2           0
    61       33           2
    61       41           1
    61       42           4
    61       43           0
    61       44           1
    61       53           0
    61       61           0
    61       65           2
    62        2           1
    62       21           0
    62       30           2
    62       50           0
    62       55           3
    62       64           3
    62       71           2
    62       75           0
    62       77           3
    62       80           0
    63        2           4
    63       11           3
    63       31           1
    63       44           2
    63       48           0
    63       78           1
    63       83           2
    63       89           2
    63       91           1
    63       93           3
    64       10           4
    64       12           4
    64       13           0
    64       15           1
    64       17           2
    64       38           0
    64       42           0
    64       43           2
    64       49           2
    64       55           1
    65       14           3
    65       19           2
    65       21           1
    65       22           3
    65       23           4
    65       32           3
    65       49           1
    65       52           1
    65       55           0
    65       61           0
    66       23           2
    66       24           3
    66       60           1
    66       65           3
    66       66           3
    66       74           0
    66       80           1
    66       89           3
    66       92           2
    66       93           0
    67       31           4
    67       59           0
    67       60           1
    67       62           3
    67       63           4
    67       66           2
    67       87           2
    67       97           3
    67       98           4
    67      100           2
    68       20           4
    68       25           4
    68       28           4
    68       57           3
    68       87           3
    68       90           2
    68       94           2
    68       95           0
    68       96           0
    68       97           4
    69       12           1
    69       13           1
    69       29           0
    69       32           4
    69       36           3
    69       37           1
    69       51           0
    69       57           2
    69       72           0
    69       75           4
    70        6           0
    70       26           0
    70       34           1
    70       35           0
    70       37           4
    70       38           2
    70       42           0
    70       47           2
    70       51           4
    70       69           1
    71       20           2
    71       44           4
    71       47           1
    71       55           0
    71       66           3
    71       69           1
    71       76           1
    71       78           1
    71       88           4
    71       89           4
    72        2           4
    72       14           1
    72       25           1
    72       29           2
    72       47           2
    72       48           4
    72       54           0
    72       69           2
    72       72           4
    72       74           1
    73        8           1
    73       37           0
    73       47           4
    73       58           3
    73       59           0
    73       77           0
    73       83           0
    73       98           2
    73       99           0
    73      100           3
    74        7           3
    74       10           4
    74       23           0
    74       25           1
    74       27           3
    74       62           0
    74       76           4
    74       80           0
    74       85           4
    74       92           1
    75        5           1
    75        6           4
    75       13           4
    75       31           2
    75       40           4
    75       58           0
    75       75           0
    75       78           0
    75       82           0
    75       85           3
    76       11           3
    76       15           3
    76       22           0
    76       33           4
    76       38           4
    76       65           0
    76       66           0
    76       70           4
    76       73           2
    76       82           4
    77       16           3
    77       30           4
    77       34           1
    77       39           2
    77       49           3
    77       52           0
    77       68           3
    77       88           1
    77       89           0
    77       94           0
    78        8           0
    78        9           1
    78       11           2
    78       16           4
    78       17           3
    78       27           2
    78       39           4
    78       46           2
    78       56           3
    78       58           0
    79       10           0
    79       27           1
    79       45           4
    79       47           0
    79       66           3
    79       81           1
    79       83           3
    79       84           3
    79       99           1
    79      100           0
    80        1           1
    80       14           3
    80       22           2
    80       32           2
    80       33           4
    80       49           4
    80       62           4
    80       73           3
    80       75           2
    80       78           0
    81       12           0
    81       18           1
    81       21           3
    81       23           0
    81       25           3
    81       26           0
    81       45           4
    81       60           1
    81       64           3
    81       68           2
    82       11           1
    82       14           1
    82       19           2
    82       20           4
    82       23           4
    82       24           1
    82       38           3
    82       67           1
    82       79           1
    82       82           4
    83        2           2
    83        4           2
    83        8           4
    83       16           0
    83       20           2
    83       41           0
    83       42           2
    83       50           4
    83       52           2
    83       59           4
    84       18           3
    84       28           3
    84       30           3
    84       42           3
    84       49           3
    84       71           1
    84       79           0
    84       92           2
    84       96           0
    84      100           0
    85       36           2
    85       43           0
    85       49           4
    85       52           1
    85       72           4
    85       77           2
    85       78           2
    85       81           3
    85       86           4
    85       87           2
    86       15           4
    86       22           3
    86       40           0
    86       52           0
    86       55           3
    86       58           4
    86       85           0
    86       88           4
    86       92           1
    86       94           2
    87        1           1
    87        2           0
    87        4           0
    87       23           4
    87       25           3
    87       36           0
    87       40           4
    87       50           2
    87       51           1
    87       60           1
    88        9           1
    88       13           2
    88       16           0
    88       20           1
    88       21           3
    88       57           3
    88       59           1
    88       67           3
    88       71           2
    88       73           2
    89        1           2
    89        9           2
    89       17           3
    89       52           1
    89       53           0
    89       56           4
    89       69           1
    89       70           4
    89       74           3
    89       90           3
    90        1           4
    90        7           2
    90       18           2
    90       23           1
    90       28           3
    90       37           3
    90       50           0
    90       72           1
    90       75           2
    90       76           1
    91        8           1
    91       19           3
    91       20           4
    91       21           4
    91       29           0
    91       39           3
    91       44           0
    91       72           1
    91       73           1
    91       82           0
    92        9           0
    92       26           2
    92       29           3
    92       42           3
    92       45           3
    92       64           0
    92       90           1
    92       93           1
    92       97           1
    92       99           4
    93       16           4
    93       30           4
    93       38           0
    93       50           1
    93       56           0
    93       82           4
    93       96           1
    93       97           3
    93       98           0
    93       99           2
    94       18           4
    94       27           0
    94       28           0
    94       31           1
    94       52           4
    94       53           3
    94       54           4
    94       58           4
    94       64           1
    94       68           4
    95        1           1
    95       13           3
    95       21           4
    95       40           1
    95       74           0
    95       83           4
    95       88           3
    95       90           1
    95       94           0
    95       97           2
    96        8           3
    96       15           1
    96       17           4
    96       19           2
    96       24           0
    96       28           1
    96       37           1
    96       43           3
    96       51           2
    96       62           3
    97       28           0
    97       36           3
    97       38           0
    97       63           3
    97       69           3
    97       77           1
    97       84           3
    97       85           4
    97       91           1
    97       93           3
    98        3           0
    98        6           1
    98       28           3
    98       34           0
    98       48           4
    98       69           3
    98       86           1
    98       90           0
    98       92           0
    98       94           4
    99       10           4
    99       20           1
    99       24           2
    99       28           3
    99       56           4
    99       62           2
    99       63           4
    99       87           3
    99       92           3
    99       95           1
   100        7           2
   100        9           4
   100       19           3
   100       26           3
   100       45           1
   100       66           0
   100       67           2
   100       76           2
   100       78           3
   100       81           0
